12 16 6 10
7 13 12 19 12 12 4 2 6 12 8 4 16 3 6 13 
11.3 15.64 1.52 2.6 12.69 15.62 12.63 4.39 5.61 2.85 4.27 7.72 8.36 6.69 4.64 4.16 
11.71 4.63 7.61 5.65 13.79 2.12 3.92 6.02 8.12 13.12 12.08 11.85 3.05 5.96 13.57 12.66 
15.12 2.32 4.13 5.45 10.57 14.17 15.81 2.73 1.97 3.32 6.14 7.91 11.29 8.25 5.78 9.09 
10.25 9.05 6.95 12.41 14.03 3.5 0.64 8.9 14.4 3.94 4.65 8.05 1.53 6.21 9.94 0.67 
0.03 0.67 4.7 9.1 11.64 5.68 8.19 7.19 5.55 12.8 9.76 2.64 15.2 6.49 12.52 15.44 
14.32 9.33 9.23 13.71 7.27 2.9 11.34 12.3 9.05 11.36 8.75 7.76 9.01 13.6 14.48 10.04 
8 8 8 8 8 8 8 8 8 8 8 8 8 8 8 8 
7.66 3.04 15.47 0.27 6.98 3.9 10.84 2.8 15.97 8.53 1.24 14.84 15.5 2.64 8.09 11.41 
8.24 6.81 8.71 0.13 14.87 13.71 3.28 2.1 14.81 8.58 10.26 14.61 8.31 1.48 3.61 14.87 
0.98 14.77 8.9 7.29 8.98 8.98 3.28 3.11 1.59 12.28 6.47 5.27 4.11 12.15 4.04 7.72 
8.08 3.31 6.56 9.32 6.77 9.35 3.23 8.03 6.8 3.04 7.94 11.77 14.06 7.67 11.21 12.66 
13.73 7.4 6.77 14.75 5.62 12.85 12.86 12.09 4.89 15.18 0.37 13.49 6.59 13.56 11.75 2.33 
1 1 1 1 1 1 1 1 1 1 1 1 1 1 1 1 
1 1 1 1 1 1 1 1 1 1 1 1 1 1 1 1 
1 1 1 1 1 1 1 1 1 1 1 1 1 1 1 1 
1 1 1 1 1 1 1 1 1 1 1 1 1 1 1 1 
1 1 1 1 1 1 1 1 1 1 1 1 1 1 1 1 
1 1 1 1 1 1 1 1 1 1 1 1 1 1 1 1 
1 1 1 1 1 1 1 1 1 1 1 1 1 1 1 1 
1 1 1 1 1 1 1 1 1 1 1 1 1 1 1 1 
1 1 1 1 1 1 1 1 1 1 1 1 1 1 1 1 
1 1 1 1 1 1 1 1 1 1 1 1 1 1 1 1 
1 1 1 1 1 1 1 1 1 1 1 1 1 1 1 1 
1 1 1 1 1 1 1 1 1 1 1 1 1 1 1 1 
0.01 0.01 0.01 0.01 0.01 0.01 0.01 0.01 0.01 0.01 0.01 0.01 0.01 0.01 0.01 0.01 
0.02 0.02 0.02 0.02 0.02 0.02 0.02 0.02 0.02 0.02 0.02 0.02 0.02 0.02 0.02 0.02 
0.03 0.03 0.03 0.03 0.03 0.03 0.03 0.03 0.03 0.03 0.03 0.03 0.03 0.03 0.03 0.03 
0.04 0.04 0.04 0.04 0.04 0.04 0.04 0.04 0.04 0.04 0.04 0.04 0.04 0.04 0.04 0.04 
0.05 0.05 0.05 0.05 0.05 0.05 0.05 0.05 0.05 0.05 0.05 0.05 0.05 0.05 0.05 0.05 
0.06 0.06 0.06 0.06 0.06 0.06 0.06 0.06 0.06 0.06 0.06 0.06 0.06 0.06 0.06 0.06 
0.07 0.07 0.07 0.07 0.07 0.07 0.07 0.07 0.07 0.07 0.07 0.07 0.07 0.07 0.07 0.07 
0.2 0.2 0.2 0.2 0.2 0.2 0.2 0.2 0.2 0.2 0.2 0.2 0.2 0.2 0.2 0.2 
0.4 0.4 0.4 0.4 0.4 0.4 0.4 0.4 0.4 0.4 0.4 0.4 0.4 0.4 0.4 0.4 
0.6 0.6 0.6 0.6 0.6 0.6 0.6 0.6 0.6 0.6 0.6 0.6 0.6 0.6 0.6 0.6 
0.8 0.8 0.8 0.8 0.8 0.8 0.8 0.8 0.8 0.8 0.8 0.8 0.8 0.8 0.8 0.8 
1 1 1 1 1 1 1 1 1 1 1 1 1 1 1 1 
